50 5
1 2 88
1 3 73
1 4 93
1 5 87
1 6 40
1 7 87
1 8 17
1 9 39
1 10 68
1 11 70
1 12 47
1 13 74
1 14 67
1 15 37
1 16 82
1 17 46
1 18 67
1 19 55
1 20 82
1 21 21
1 22 23
1 23 91
1 24 7
1 25 62
1 26 10
1 27 58
1 28 77
1 29 100
1 30 53
1 31 3
1 32 29
1 33 44
1 34 80
1 35 33
1 36 50
1 37 12
1 38 2
1 39 98
1 40 9
1 41 9
1 42 34
1 43 5
1 44 41
1 45 91
1 46 66
1 47 55
1 48 93
1 49 25
1 50 24
2 3 17
2 4 53
2 5 12
2 6 47
2 7 77
2 8 39
2 9 78
2 10 93
2 11 77
2 12 30
2 13 0
2 14 97
2 15 76
2 16 69
2 17 40
2 18 20
2 19 47
2 20 51
2 21 92
2 22 80
2 23 22
2 24 52
2 25 45
2 26 92
2 27 65
2 28 80
2 29 95
2 30 65
2 31 72
2 32 10
2 33 21
2 34 14
2 35 87
2 36 67
2 37 13
2 38 68
2 39 22
2 40 20
2 41 27
2 42 19
2 43 36
2 44 62
2 45 5
2 46 48
2 47 39
2 48 66
2 49 35
2 50 53
3 4 54
3 5 39
3 6 37
3 7 92
3 8 44
3 9 90
3 10 28
3 11 44
3 12 21
3 13 32
3 14 90
3 15 92
3 16 24
3 17 81
3 18 21
3 19 8
3 20 23
3 21 74
3 22 13
3 23 92
3 24 99
3 25 71
3 26 78
3 27 2
3 28 45
3 29 87
3 30 84
3 31 90
3 32 38
3 33 58
3 34 66
3 35 37
3 36 100
3 37 90
3 38 9
3 39 83
3 40 80
3 41 68
3 42 65
3 43 95
3 44 14
3 45 99
3 46 1
3 47 76
3 48 40
3 49 67
3 50 39
4 5 6
4 6 62
4 7 85
4 8 44
4 9 45
4 10 0
4 11 45
4 12 45
4 13 45
4 14 64
4 15 54
4 16 33
4 17 5
4 18 15
4 19 25
4 20 38
4 21 57
4 22 75
4 23 70
4 24 70
4 25 62
4 26 77
4 27 5
4 28 76
4 29 68
4 30 58
4 31 55
4 32 72
4 33 74
4 34 83
4 35 99
4 36 36
4 37 34
4 38 13
4 39 93
4 40 62
4 41 50
4 42 12
4 43 79
4 44 54
4 45 73
4 46 52
4 47 71
4 48 36
4 49 34
4 50 92
5 6 81
5 7 28
5 8 27
5 9 34
5 10 57
5 11 63
5 12 4
5 13 97
5 14 94
5 15 42
5 16 78
5 17 35
5 18 68
5 19 27
5 20 14
5 21 20
5 22 89
5 23 29
5 24 42
5 25 84
5 26 73
5 27 17
5 28 50
5 29 58
5 30 38
5 31 33
5 32 69
5 33 20
5 34 78
5 35 11
5 36 89
5 37 10
5 38 91
5 39 75
5 40 94
5 41 6
5 42 70
5 43 47
5 44 24
5 45 15
5 46 80
5 47 60
5 48 45
5 49 37
5 50 70
6 7 11
6 8 6
6 9 25
6 10 38
6 11 65
6 12 49
6 13 28
6 14 61
6 15 3
6 16 6
6 17 31
6 18 57
6 19 33
6 20 80
6 21 25
6 22 92
6 23 11
6 24 36
6 25 46
6 26 16
6 27 36
6 28 8
6 29 51
6 30 43
6 31 14
6 32 24
6 33 25
6 34 65
6 35 90
6 36 7
6 37 57
6 38 38
6 39 84
6 40 66
6 41 44
6 42 23
6 43 18
6 44 62
6 45 30
6 46 11
6 47 90
6 48 1
6 49 13
6 50 89
7 8 13
7 9 67
7 10 58
7 11 52
7 12 87
7 13 68
7 14 22
7 15 54
7 16 63
7 17 54
7 18 63
7 19 14
7 20 78
7 21 82
7 22 43
7 23 15
7 24 59
7 25 76
7 26 31
7 27 2
7 28 94
7 29 90
7 30 58
7 31 10
7 32 79
7 33 38
7 34 57
7 35 55
7 36 78
7 37 52
7 38 84
7 39 47
7 40 1
7 41 84
7 42 78
7 43 84
7 44 13
7 45 9
7 46 43
7 47 37
7 48 34
7 49 41
7 50 11
8 9 78
8 10 92
8 11 12
8 12 13
8 13 19
8 14 76
8 15 33
8 16 87
8 17 47
8 18 88
8 19 76
8 20 50
8 21 31
8 22 80
8 23 15
8 24 8
8 25 13
8 26 23
8 27 42
8 28 79
8 29 37
8 30 62
8 31 14
8 32 1
8 33 59
8 34 66
8 35 17
8 36 68
8 37 58
8 38 70
8 39 5
8 40 31
8 41 85
8 42 90
8 43 86
8 44 42
8 45 88
8 46 94
8 47 78
8 48 19
8 49 5
8 50 58
9 10 62
9 11 56
9 12 68
9 13 54
9 14 81
9 15 54
9 16 42
9 17 4
9 18 80
9 19 69
9 20 59
9 21 34
9 22 97
9 23 36
9 24 45
9 25 96
9 26 18
9 27 37
9 28 26
9 29 30
9 30 35
9 31 75
9 32 36
9 33 62
9 34 16
9 35 12
9 36 27
9 37 55
9 38 69
9 39 17
9 40 34
9 41 52
9 42 65
9 43 61
9 44 79
9 45 46
9 46 60
9 47 76
9 48 96
9 49 69
9 50 41
10 11 89
10 12 84
10 13 18
10 14 52
10 15 44
10 16 14
10 17 91
10 18 28
10 19 80
10 20 4
10 21 63
10 22 74
10 23 16
10 24 97
10 25 14
10 26 61
10 27 80
10 28 25
10 29 59
10 30 96
10 31 76
10 32 88
10 33 49
10 34 57
10 35 52
10 36 99
10 37 64
10 38 77
10 39 33
10 40 55
10 41 27
10 42 30
10 43 77
10 44 41
10 45 57
10 46 14
10 47 32
10 48 12
10 49 13
10 50 91
11 12 94
11 13 46
11 14 40
11 15 7
11 16 19
11 17 66
11 18 96
11 19 39
11 20 67
11 21 100
11 22 1
11 23 98
11 24 68
11 25 45
11 26 93
11 27 74
11 28 4
11 29 69
11 30 58
11 31 72
11 32 2
11 33 86
11 34 95
11 35 70
11 36 22
11 37 33
11 38 63
11 39 53
11 40 38
11 41 58
11 42 82
11 43 61
11 44 7
11 45 84
11 46 5
11 47 96
11 48 89
11 49 50
11 50 99
12 13 4
12 14 19
12 15 27
12 16 33
12 17 13
12 18 3
12 19 96
12 20 58
12 21 43
12 22 37
12 23 74
12 24 31
12 25 80
12 26 81
12 27 0
12 28 21
12 29 89
12 30 62
12 31 87
12 32 28
12 33 14
12 34 26
12 35 24
12 36 22
12 37 27
12 38 68
12 39 0
12 40 43
12 41 55
12 42 17
12 43 65
12 44 6
12 45 96
12 46 18
12 47 20
12 48 89
12 49 34
12 50 86
13 14 4
13 15 83
13 16 42
13 17 66
13 18 100
13 19 38
13 20 83
13 21 18
13 22 98
13 23 23
13 24 29
13 25 52
13 26 94
13 27 40
13 28 26
13 29 36
13 30 10
13 31 89
13 32 7
13 33 53
13 34 68
13 35 42
13 36 31
13 37 28
13 38 46
13 39 70
13 40 69
13 41 43
13 42 61
13 43 15
13 44 69
13 45 33
13 46 0
13 47 32
13 48 41
13 49 49
13 50 40
14 15 61
14 16 69
14 17 89
14 18 5
14 19 59
14 20 45
14 21 31
14 22 14
14 23 55
14 24 72
14 25 88
14 26 48
14 27 55
14 28 88
14 29 78
14 30 41
14 31 100
14 32 64
14 33 46
14 34 64
14 35 35
14 36 36
14 37 15
14 38 96
14 39 73
14 40 59
14 41 60
14 42 69
14 43 38
14 44 40
14 45 96
14 46 80
14 47 42
14 48 50
14 49 67
14 50 63
15 16 89
15 17 84
15 18 45
15 19 80
15 20 8
15 21 47
15 22 54
15 23 5
15 24 13
15 25 53
15 26 97
15 27 54
15 28 55
15 29 10
15 30 45
15 31 59
15 32 17
15 33 63
15 34 35
15 35 61
15 36 45
15 37 66
15 38 29
15 39 73
15 40 99
15 41 9
15 42 42
15 43 64
15 44 91
15 45 70
15 46 9
15 47 50
15 48 87
15 49 51
15 50 44
16 17 10
16 18 58
16 19 69
16 20 69
16 21 50
16 22 57
16 23 28
16 24 86
16 25 86
16 26 89
16 27 24
16 28 2
16 29 7
16 30 93
16 31 63
16 32 99
16 33 98
16 34 51
16 35 21
16 36 31
16 37 84
16 38 10
16 39 31
16 40 16
16 41 32
16 42 7
16 43 40
16 44 9
16 45 95
16 46 97
16 47 76
16 48 82
16 49 12
16 50 49
17 18 86
17 19 76
17 20 64
17 21 76
17 22 70
17 23 69
17 24 35
17 25 27
17 26 68
17 27 0
17 28 92
17 29 56
17 30 30
17 31 7
17 32 88
17 33 60
17 34 5
17 35 40
17 36 48
17 37 96
17 38 81
17 39 81
17 40 91
17 41 55
17 42 43
17 43 50
17 44 99
17 45 4
17 46 64
17 47 84
17 48 72
17 49 30
17 50 27
18 19 87
18 20 97
18 21 95
18 22 35
18 23 1
18 24 56
18 25 56
18 26 97
18 27 50
18 28 41
18 29 61
18 30 45
18 31 66
18 32 16
18 33 25
18 34 39
18 35 57
18 36 1
18 37 50
18 38 22
18 39 12
18 40 48
18 41 59
18 42 28
18 43 57
18 44 95
18 45 26
18 46 74
18 47 72
18 48 22
18 49 71
18 50 15
19 20 40
19 21 25
19 22 59
19 23 73
19 24 97
19 25 12
19 26 32
19 27 19
19 28 97
19 29 59
19 30 65
19 31 49
19 32 9
19 33 10
19 34 81
19 35 3
19 36 11
19 37 44
19 38 54
19 39 10
19 40 22
19 41 12
19 42 36
19 43 67
19 44 15
19 45 70
19 46 4
19 47 68
19 48 25
19 49 3
19 50 62
20 21 38
20 22 2
20 23 77
20 24 75
20 25 75
20 26 58
20 27 23
20 28 32
20 29 22
20 30 43
20 31 45
20 32 76
20 33 81
20 34 90
20 35 87
20 36 29
20 37 2
20 38 17
20 39 21
20 40 59
20 41 87
20 42 47
20 43 87
20 44 69
20 45 65
20 46 16
20 47 96
20 48 47
20 49 80
20 50 46
21 22 54
21 23 11
21 24 33
21 25 94
21 26 44
21 27 38
21 28 6
21 29 37
21 30 58
21 31 85
21 32 21
21 33 31
21 34 53
21 35 27
21 36 40
21 37 35
21 38 60
21 39 16
21 40 31
21 41 80
21 42 75
21 43 12
21 44 46
21 45 73
21 46 27
21 47 7
21 48 27
21 49 80
21 50 2
22 23 13
22 24 81
22 25 56
22 26 52
22 27 46
22 28 47
22 29 10
22 30 65
22 31 68
22 32 53
22 33 48
22 34 83
22 35 8
22 36 84
22 37 8
22 38 79
22 39 59
22 40 22
22 41 69
22 42 40
22 43 5
22 44 13
22 45 57
22 46 3
22 47 55
22 48 91
22 49 5
22 50 13
23 24 22
23 25 13
23 26 48
23 27 25
23 28 55
23 29 8
23 30 37
23 31 64
23 32 89
23 33 78
23 34 0
23 35 94
23 36 74
23 37 49
23 38 72
23 39 1
23 40 96
23 41 78
23 42 78
23 43 53
23 44 25
23 45 33
23 46 33
23 47 53
23 48 98
23 49 66
23 50 47
24 25 57
24 26 36
24 27 48
24 28 50
24 29 98
24 30 51
24 31 51
24 32 42
24 33 39
24 34 81
24 35 100
24 36 72
24 37 30
24 38 64
24 39 89
24 40 88
24 41 35
24 42 74
24 43 36
24 44 4
24 45 37
24 46 70
24 47 25
24 48 53
24 49 88
24 50 64
25 26 74
25 27 38
25 28 74
25 29 91
25 30 31
25 31 98
25 32 21
25 33 96
25 34 66
25 35 54
25 36 62
25 37 51
25 38 26
25 39 70
25 40 44
25 41 58
25 42 33
25 43 100
25 44 12
25 45 77
25 46 39
25 47 22
25 48 5
25 49 21
25 50 10
26 27 18
26 28 5
26 29 4
26 30 17
26 31 91
26 32 50
26 33 39
26 34 70
26 35 60
26 36 64
26 37 21
26 38 83
26 39 21
26 40 35
26 41 0
26 42 85
26 43 51
26 44 71
26 45 56
26 46 96
26 47 78
26 48 88
26 49 30
26 50 90
27 28 92
27 29 95
27 30 70
27 31 16
27 32 11
27 33 27
27 34 99
27 35 18
27 36 68
27 37 57
27 38 9
27 39 40
27 40 73
27 41 53
27 42 42
27 43 12
27 44 97
27 45 7
27 46 55
27 47 44
27 48 59
27 49 46
27 50 49
28 29 45
28 30 43
28 31 96
28 32 91
28 33 23
28 34 6
28 35 35
28 36 47
28 37 74
28 38 52
28 39 63
28 40 18
28 41 84
28 42 25
28 43 46
28 44 98
28 45 53
28 46 85
28 47 48
28 48 6
28 49 39
28 50 48
29 30 91
29 31 94
29 32 80
29 33 60
29 34 63
29 35 3
29 36 23
29 37 95
29 38 85
29 39 19
29 40 72
29 41 16
29 42 10
29 43 67
29 44 2
29 45 49
29 46 88
29 47 34
29 48 5
29 49 74
29 50 100
30 31 56
30 32 57
30 33 2
30 34 14
30 35 83
30 36 73
30 37 11
30 38 84
30 39 68
30 40 82
30 41 16
30 42 10
30 43 71
30 44 79
30 45 10
30 46 0
30 47 22
30 48 93
30 49 51
30 50 72
31 32 93
31 33 64
31 34 9
31 35 29
31 36 31
31 37 61
31 38 40
31 39 42
31 40 68
31 41 97
31 42 97
31 43 7
31 44 10
31 45 6
31 46 33
31 47 89
31 48 13
31 49 72
31 50 10
32 33 49
32 34 49
32 35 88
32 36 12
32 37 97
32 38 97
32 39 44
32 40 0
32 41 70
32 42 4
32 43 34
32 44 23
32 45 37
32 46 85
32 47 38
32 48 58
32 49 60
32 50 82
33 34 93
33 35 27
33 36 36
33 37 66
33 38 12
33 39 78
33 40 79
33 41 35
33 42 58
33 43 67
33 44 50
33 45 81
33 46 78
33 47 67
33 48 97
33 49 19
33 50 26
34 35 13
34 36 41
34 37 17
34 38 23
34 39 78
34 40 76
34 41 37
34 42 16
34 43 5
34 44 33
34 45 82
34 46 29
34 47 94
34 48 39
34 49 33
34 50 13
35 36 63
35 37 64
35 38 75
35 39 26
35 40 88
35 41 27
35 42 100
35 43 51
35 44 62
35 45 45
35 46 59
35 47 25
35 48 36
35 49 15
35 50 49
36 37 90
36 38 22
36 39 26
36 40 28
36 41 33
36 42 24
36 43 47
36 44 17
36 45 39
36 46 91
36 47 79
36 48 41
36 49 68
36 50 4
37 38 51
37 39 79
37 40 25
37 41 8
37 42 31
37 43 15
37 44 31
37 45 53
37 46 41
37 47 16
37 48 95
37 49 98
37 50 38
38 39 88
38 40 71
38 41 92
38 42 41
38 43 28
38 44 66
38 45 6
38 46 87
38 47 86
38 48 59
38 49 41
38 50 89
39 40 74
39 41 60
39 42 84
39 43 37
39 44 13
39 45 28
39 46 82
39 47 43
39 48 20
39 49 34
39 50 16
40 41 6
40 42 28
40 43 25
40 44 36
40 45 5
40 46 13
40 47 10
40 48 87
40 49 93
40 50 73
41 42 7
41 43 56
41 44 98
41 45 79
41 46 17
41 47 25
41 48 60
41 49 93
41 50 21
42 43 98
42 44 40
42 45 83
42 46 51
42 47 91
42 48 48
42 49 26
42 50 18
43 44 39
43 45 58
43 46 22
43 47 24
43 48 85
43 49 24
43 50 87
44 45 70
44 46 44
44 47 33
44 48 20
44 49 6
44 50 9
45 46 24
45 47 39
45 48 74
45 49 94
45 50 9
46 47 11
46 48 81
46 49 65
46 50 30
47 48 96
47 49 14
47 50 59
48 49 20
48 50 43
49 50 30
